objective value:                                    0
lambda[1,21]*                                       1 	(obj:0)
lambda[1,22]*                                       5 	(obj:0)
lambda[0,22]*                                       1 	(obj:0)
lambda[0,25]*                                       4 	(obj:0)
lambda[0,26]*                                       5 	(obj:0)
lambda[1,29]*                                       4 	(obj:0)
